\ENCODING=ISO-8859-1
\Problem name: ilog.cplex

Minimize
 obj1: 93061 x1 + 97974 x2 + 94712 x3 + 101123 x4 + 108019 x5 + 93223 x6
       + 96228 x7 + 104466 x8 + 109376 x9 + 108366 x10 + 104533 x11
       + 103574 x12 + 90567 x13 + 90828 x14 + 99839 x15 + 97493 x16
       + 109061 x17 + 102634 x18 + 93918 x19 + 104237 x20 + 97088 x21
       + 92649 x22 + 99398 x23 + 101622 x24 + 109781 x25 + 101638 x26
       + 94517 x27 + 96185 x28 + 101235 x29 + 97152 x30 + 102148 x31
       + 92733 x32 + 105770 x33 + 92753 x34 + 91472 x35 + 109908 x36
       + 99012 x37 + 99229 x38 + 100835 x39 + 105618 x40 + 101421 x41
       + 104258 x42 + 91145 x43 + 100256 x44 + 105487 x45 + 101312 x46
       + 90577 x47 + 95333 x48 + 97074 x49 + 108678 x50 + 95063 x51
       + 108463 x52 + 102886 x53 + 93330 x54 + 99554 x55 + 106047 x56
       + 99213 x57 + 97357 x58 + 100585 x59 + 105951 x60 + 103473 x61
       + 105216 x62 + 91082 x63 + 103950 x64 + 100640 x65 + 92878 x66
       + 95105 x67 + 109153 x68 + 100448 x69 + 102543 x70 + 95077 x71
       + 100504 x72 + 94324 x73 + 103383 x74 + 108081 x75 + 107078 x76
       + 93242 x77 + 97766 x78 + 94719 x79 + 103935 x80 + 104635 x81
       + 104693 x82 + 104695 x83 + 92911 x84 + 92438 x85 + 107681 x86
       + 99524 x87 + 96067 x88 + 95922 x89 + 100421 x90 + 104678 x91
       + 108416 x92 + 100188 x93 + 100302 x94 + 91008 x95 + 96123 x96
       + 94010 x97 + 107236 x98 + 108412 x99 + 106523 x100 + 97127 x101
       + 109710 x102 + 96661 x103 + 107291 x104 + 92195 x105 + 98459 x106
       + 94788 x107 + 109446 x108 + 97505 x109 + 95087 x110 + 97232 x111
       + 100251 x112 + 106647 x113 + 108954 x114 + 104471 x115 + 104011 x116
       + 95436 x117 + 108144 x118 + 105848 x119 + 103468 x120 + 104988 x121
       + 107517 x122 + 93656 x123 + 107844 x124 + 98555 x125 + 106664 x126
       + 102144 x127 + 105135 x128 + 102371 x129 + 92071 x130 + 93278 x131
       + 93037 x132 + 106580 x133 + 96891 x134 + 104703 x135 + 102310 x136
       + 108737 x137 + 96430 x138 + 99592 x139 + 101399 x140 + 109426 x141
       + 107760 x142 + 92950 x143 + 101753 x144 + 97207 x145 + 97881 x146
       + 94389 x147 + 109593 x148 + 108411 x149 + 106374 x150 + 95741 x151
       + 101025 x152 + 100588 x153 + 93107 x154 + 95444 x155 + 95118 x156
       + 96724 x157 + 100551 x158 + 104097 x159 + 92555 x160 + 95875 x161
       + 91428 x162 + 98380 x163 + 100133 x164 + 92020 x165 + 101047 x166
       + 106923 x167 + 93320 x168 + 107894 x169 + 95532 x170 + 102743 x171
       + 107786 x172 + 100092 x173 + 98590 x174 + 108797 x175 + 100320 x176
       + 97134 x177 + 91109 x178 + 97763 x179 + 106678 x180 + 95775 x181
       + 91919 x182 + 99396 x183 + 95672 x184 + 103356 x185 + 102639 x186
       + 106622 x187 + 101150 x188 + 92149 x189 + 94667 x190 + 94993 x191
       + 106522 x192 + 105388 x193 + 92199 x194 + 99211 x195 + 100092 x196
       + 104114 x197 + 101590 x198 + 105143 x199 + 93703 x200 + 102044 x201
       + 91582 x202 + 109091 x203 + 97775 x204 + 95489 x205 + 106968 x206
       + 94955 x207 + 99104 x208 + 105426 x209 + 109256 x210 + 100100 x211
       + 100884 x212 + 97766 x213 + 101803 x214 + 105721 x215 + 90144 x216
       + 97732 x217 + 94952 x218 + 108410 x219 + 104030 x220 + 106944 x221
       + 103893 x222 + 93336 x223 + 102434 x224 + 102502 x225 + 93402 x226
       + 102528 x227 + 107844 x228 + 106949 x229 + 106218 x230 + 104493 x231
       + 96369 x232 + 107905 x233 + 97503 x234 + 94130 x235 + 94748 x236
       + 106610 x237 + 99068 x238 + 95149 x239 + 94820 x240 + 105768 x241
       + 93964 x242 + 101193 x243 + 99089 x244 + 108781 x245 + 94551 x246
       + 96338 x247 + 98860 x248 + 94870 x249 + 22873 x250 + 200266 x251
       + 200346 x252 + 206418 x253 + 218119 x254 + 203910 x255 + 192967 x256
       + 198634 x257 + 211650 x258 + 185512 x259 + 185393 x260 + 205144 x261
       + 211035 x262 + 194152 x263 + 197983 x264 + 184789 x265 + 203244 x266
       + 200473 x267 + 190504 x268 + 196941 x269 + 194498 x270 + 215940 x271
       + 193150 x272 + 218781 x273 + 203445 x274 + 196760 x275 + 200886 x276
       + 187197 x277 + 186777 x278 + 207384 x279 + 184271 x280 + 210688 x281
       + 197025 x282 + 202901 x283 + 219032 x284 + 192972 x285 + 198243 x286
       + 187822 x287 + 189481 x288 + 180005 x289 + 195035 x290 + 180626 x291
       + 217504 x292 + 185935 x293 + 183840 x294 + 199165 x295 + 189182 x296
       + 191033 x297 + 192613 x298 + 181371 x299 + 328958 x300
Subject To
 c1:   - x2 - x11 - x14 + x16 + x18 - x23 + x25 - x26 - x34 + x49  = 0
 c2:   - x52 - x61 - x64 + x66 + x68 - x73 + x75 - x76 - x84 + x99  = 0
 c3:   - x102 - x111 - x114 + x116 + x118 - x123 + x125 - x126 - x134 + x149
        = 0
 c4:   - x152 - x161 - x164 + x166 + x168 - x173 + x175 - x176 - x184 + x199
        = 0
 c5:   - x202 - x211 - x214 + x216 + x218 - x223 + x225 - x226 - x234 + x249
        = 0
 c6:   x6 + x9 + x17  = 0
 c7:   x56 + x59 + x67  = 0
 c8:   x106 + x109 + x117  = 0
 c9:   x156 + x159 + x167  = 1
 c10:  x206 + x209 + x217  = 0
 c11:  x12 - x17 + x23 - x25 + x28 - x47  = 0
 c12:  x62 - x67 + x73 - x75 + x78 - x97  = 0
 c13:  x112 - x117 + x123 - x125 + x128 - x147  = -1
 c14:  x162 - x167 + x173 - x175 + x178 - x197  = 0
 c15:  x212 - x217 + x223 - x225 + x228 - x247  = 0
 c16:  - x7 - x10 - x18 - x21 + x45 + x47 + x50  = 0
 c17:  - x57 - x60 - x68 - x71 + x95 + x97 + x100  = 0
 c18:  - x107 - x110 - x118 - x121 + x145 + x147 + x150  = 0
 c19:  - x157 - x160 - x168 - x171 + x195 + x197 + x200  = 0
 c20:  - x207 - x210 - x218 - x221 + x245 + x247 + x250  = 1
 c21:  x21 + x22 - x32 + x34 - x38 + x41  = -1
 c22:  x71 + x72 - x82 + x84 - x88 + x91  = 0
 c23:  x121 + x122 - x132 + x134 - x138 + x141  = 0
 c24:  x171 + x172 - x182 + x184 - x188 + x191  = -1
 c25:  x221 + x222 - x232 + x234 - x238 + x241  = -1
 c26:  x4 - x16 + x27 - x31 + x37 - x39  = 0
 c27:  x54 - x66 + x77 - x81 + x87 - x89  = 0
 c28:  x104 - x116 + x127 - x131 + x137 - x139  = 0
 c29:  x154 - x166 + x177 - x181 + x187 - x189  = 0
 c30:  x204 - x216 + x227 - x231 + x237 - x239  = 0
 c31:  - x5 - x24 + x29 + x35 - x48  = 0
 c32:  - x55 - x74 + x79 + x85 - x98  = 0
 c33:  - x105 - x124 + x129 + x135 - x148  = 0
 c34:  - x155 - x174 + x179 + x185 - x198  = 0
 c35:  - x205 - x224 + x229 + x235 - x248  = 0
 c36:  x14  = 0
 c37:  x64  = 1
 c38:  x114  = 0
 c39:  x164  = 0
 c40:  x214  = 0
 c41:  - x22 + x26 - x27 - x28 + x31 + x40 - x42 - x43 - x49  = 0
 c42:  - x72 + x76 - x77 - x78 + x81 + x90 - x92 - x93 - x99  = -1
 c43:  - x122 + x126 - x127 - x128 + x131 + x140 - x142 - x143 - x149  = 0
 c44:  - x172 + x176 - x177 - x178 + x181 + x190 - x192 - x193 - x199  = 0
 c45:  - x222 + x226 - x227 - x228 + x231 + x240 - x242 - x243 - x249  = 0
 c46:  - x4 - x30 - x33 + x36 + x39 + x46  = 0
 c47:  - x54 - x80 - x83 + x86 + x89 + x96  = 0
 c48:  - x104 - x130 - x133 + x136 + x139 + x146  = 1
 c49:  - x154 - x180 - x183 + x186 + x189 + x196  = 0
 c50:  - x204 - x230 - x233 + x236 + x239 + x246  = 0
 c51:  x7 - x8 - x9 + x11 - x15 + x19 - x35 - x36 + x48  = 0
 c52:  x57 - x58 - x59 + x61 - x65 + x69 - x85 - x86 + x98  = 0
 c53:  x107 - x108 - x109 + x111 - x115 + x119 - x135 - x136 + x148  = 0
 c54:  x157 - x158 - x159 + x161 - x165 + x169 - x185 - x186 + x198  = 0
 c55:  x207 - x208 - x209 + x211 - x215 + x219 - x235 - x236 + x248  = 0
 c56:  - x1 - x3 + x5 + x8 + x33 + x42 + x44  = 0
 c57:  - x51 - x53 + x55 + x58 + x83 + x92 + x94  = 0
 c58:  - x101 - x103 + x105 + x108 + x133 + x142 + x144  = 0
 c59:  - x151 - x153 + x155 + x158 + x183 + x192 + x194  = 0
 c60:  - x201 - x203 + x205 + x208 + x233 + x242 + x244  = 0
 c61:  x1 + x2 - x6 + x10 + x13 - x20 + x24 + x38 - x40 - x41 - x45  = 0
 c62:  x51 + x52 - x56 + x60 + x63 - x70 + x74 + x88 - x90 - x91 - x95  = 0
 c63:  x101 + x102 - x106 + x110 + x113 - x120 + x124 + x138 - x140 - x141
       - x145  = 0
 c64:  x151 + x152 - x156 + x160 + x163 - x170 + x174 + x188 - x190 - x191
       - x195  = 0
 c65:  x201 + x202 - x206 + x210 + x213 - x220 + x224 + x238 - x240 - x241
       - x245  = 0
 c66:  x3 - x12 + x15 + x32 - x50  = 1
 c67:  x53 - x62 + x65 + x82 - x100  = 0
 c68:  x103 - x112 + x115 + x132 - x150  = 0
 c69:  x153 - x162 + x165 + x182 - x200  = 0
 c70:  x203 - x212 + x215 + x232 - x250  = 0
 c71:  - x13 - x19 + x20 - x29 + x30 - x37 + x43 - x44 - x46  = 0
 c72:  - x63 - x69 + x70 - x79 + x80 - x87 + x93 - x94 - x96  = 0
 c73:  - x113 - x119 + x120 - x129 + x130 - x137 + x143 - x144 - x146  = 0
 c74:  - x163 - x169 + x170 - x179 + x180 - x187 + x193 - x194 - x196  = 0
 c75:  - x213 - x219 + x220 - x229 + x230 - x237 + x243 - x244 - x246  = 0
 c76:  4 x1 + 4 x51 + 4 x101 + 4 x151 + 4 x201 - 9 x251 <= 0
 c77:  4 x2 + 4 x52 + 4 x102 + 4 x152 + 4 x202 - 9 x252 <= 0
 c78:  4 x3 + 4 x53 + 4 x103 + 4 x153 + 4 x203 - 10 x253 <= 0
 c79:  4 x4 + 4 x54 + 4 x104 + 4 x154 + 4 x204 - 9 x254 <= 0
 c80:  4 x5 + 4 x55 + 4 x105 + 4 x155 + 4 x205 - 9 x255 <= 0
 c81:  4 x6 + 4 x56 + 4 x106 + 4 x156 + 4 x206 - 9 x256 <= 0
 c82:  4 x7 + 4 x57 + 4 x107 + 4 x157 + 4 x207 - 10 x257 <= 0
 c83:  4 x8 + 4 x58 + 4 x108 + 4 x158 + 4 x208 - 10 x258 <= 0
 c84:  4 x9 + 4 x59 + 4 x109 + 4 x159 + 4 x209 - 10 x259 <= 0
 c85:  4 x10 + 4 x60 + 4 x110 + 4 x160 + 4 x210 - 10 x260 <= 0
 c86:  4 x11 + 4 x61 + 4 x111 + 4 x161 + 4 x211 - 10 x261 <= 0
 c87:  4 x12 + 4 x62 + 4 x112 + 4 x162 + 4 x212 - 10 x262 <= 0
 c88:  4 x13 + 4 x63 + 4 x113 + 4 x163 + 4 x213 - 10 x263 <= 0
 c89:  4 x14 + 4 x64 + 4 x114 + 4 x164 + 4 x214 - 10 x264 <= 0
 c90:  4 x15 + 4 x65 + 4 x115 + 4 x165 + 4 x215 - 10 x265 <= 0
 c91:  4 x16 + 4 x66 + 4 x116 + 4 x166 + 4 x216 - 11 x266 <= 0
 c92:  4 x17 + 4 x67 + 4 x117 + 4 x167 + 4 x217 - 9 x267 <= 0
 c93:  4 x18 + 4 x68 + 4 x118 + 4 x168 + 4 x218 - 9 x268 <= 0
 c94:  4 x19 + 4 x69 + 4 x119 + 4 x169 + 4 x219 - 10 x269 <= 0
 c95:  4 x20 + 4 x70 + 4 x120 + 4 x170 + 4 x220 - 11 x270 <= 0
 c96:  4 x21 + 4 x71 + 4 x121 + 4 x171 + 4 x221 - 11 x271 <= 0
 c97:  4 x22 + 4 x72 + 4 x122 + 4 x172 + 4 x222 - 10 x272 <= 0
 c98:  4 x23 + 4 x73 + 4 x123 + 4 x173 + 4 x223 - 10 x273 <= 0
 c99:  4 x24 + 4 x74 + 4 x124 + 4 x174 + 4 x224 - 11 x274 <= 0
 c100: 4 x25 + 4 x75 + 4 x125 + 4 x175 + 4 x225 - 10 x275 <= 0
 c101: 4 x26 + 4 x76 + 4 x126 + 4 x176 + 4 x226 - 10 x276 <= 0
 c102: 4 x27 + 4 x77 + 4 x127 + 4 x177 + 4 x227 - 10 x277 <= 0
 c103: 4 x28 + 4 x78 + 4 x128 + 4 x178 + 4 x228 - 9 x278 <= 0
 c104: 4 x29 + 4 x79 + 4 x129 + 4 x179 + 4 x229 - 10 x279 <= 0
 c105: 4 x30 + 4 x80 + 4 x130 + 4 x180 + 4 x230 - 10 x280 <= 0
 c106: 4 x31 + 4 x81 + 4 x131 + 4 x181 + 4 x231 - 9 x281 <= 0
 c107: 4 x32 + 4 x82 + 4 x132 + 4 x182 + 4 x232 - 10 x282 <= 0
 c108: 4 x33 + 4 x83 + 4 x133 + 4 x183 + 4 x233 - 9 x283 <= 0
 c109: 4 x34 + 4 x84 + 4 x134 + 4 x184 + 4 x234 - 10 x284 <= 0
 c110: 4 x35 + 4 x85 + 4 x135 + 4 x185 + 4 x235 - 11 x285 <= 0
 c111: 4 x36 + 4 x86 + 4 x136 + 4 x186 + 4 x236 - 10 x286 <= 0
 c112: 4 x37 + 4 x87 + 4 x137 + 4 x187 + 4 x237 - 10 x287 <= 0
 c113: 4 x38 + 4 x88 + 4 x138 + 4 x188 + 4 x238 - 9 x288 <= 0
 c114: 4 x39 + 4 x89 + 4 x139 + 4 x189 + 4 x239 - 10 x289 <= 0
 c115: 4 x40 + 4 x90 + 4 x140 + 4 x190 + 4 x240 - 10 x290 <= 0
 c116: 4 x41 + 4 x91 + 4 x141 + 4 x191 + 4 x241 - 9 x291 <= 0
 c117: 4 x42 + 4 x92 + 4 x142 + 4 x192 + 4 x242 - 10 x292 <= 0
 c118: 4 x43 + 4 x93 + 4 x143 + 4 x193 + 4 x243 - 11 x293 <= 0
 c119: 4 x44 + 4 x94 + 4 x144 + 4 x194 + 4 x244 - 10 x294 <= 0
 c120: 4 x45 + 4 x95 + 4 x145 + 4 x195 + 4 x245 - 10 x295 <= 0
 c121: 4 x46 + 4 x96 + 4 x146 + 4 x196 + 4 x246 - 9 x296 <= 0
 c122: 4 x47 + 4 x97 + 4 x147 + 4 x197 + 4 x247 - 10 x297 <= 0
 c123: 4 x48 + 4 x98 + 4 x148 + 4 x198 + 4 x248 - 9 x298 <= 0
 c124: 4 x49 + 4 x99 + 4 x149 + 4 x199 + 4 x249 - 11 x299 <= 0
 c125: 4 x50 + 4 x100 + 4 x150 + 4 x200 + 4 x250 - 17 x300 <= 0
Bounds
 0 <= x1 <= 1
 0 <= x2 <= 1
 0 <= x3 <= 1
 0 <= x4 <= 1
 0 <= x5 <= 1
 0 <= x6 <= 1
 0 <= x7 <= 1
 0 <= x8 <= 1
 0 <= x9 <= 1
 0 <= x10 <= 1
 0 <= x11 <= 1
 0 <= x12 <= 1
 0 <= x13 <= 1
 0 <= x14 <= 1
 0 <= x15 <= 1
 0 <= x16 <= 1
 0 <= x17 <= 1
 0 <= x18 <= 1
 0 <= x19 <= 1
 0 <= x20 <= 1
 0 <= x21 <= 1
 0 <= x22 <= 1
 0 <= x23 <= 1
 0 <= x24 <= 1
 0 <= x25 <= 1
 0 <= x26 <= 1
 0 <= x27 <= 1
 0 <= x28 <= 1
 0 <= x29 <= 1
 0 <= x30 <= 1
 0 <= x31 <= 1
 0 <= x32 <= 1
 0 <= x33 <= 1
 0 <= x34 <= 1
 0 <= x35 <= 1
 0 <= x36 <= 1
 0 <= x37 <= 1
 0 <= x38 <= 1
 0 <= x39 <= 1
 0 <= x40 <= 1
 0 <= x41 <= 1
 0 <= x42 <= 1
 0 <= x43 <= 1
 0 <= x44 <= 1
 0 <= x45 <= 1
 0 <= x46 <= 1
 0 <= x47 <= 1
 0 <= x48 <= 1
 0 <= x49 <= 1
 0 <= x50 <= 1
 0 <= x51 <= 1
 0 <= x52 <= 1
 0 <= x53 <= 1
 0 <= x54 <= 1
 0 <= x55 <= 1
 0 <= x56 <= 1
 0 <= x57 <= 1
 0 <= x58 <= 1
 0 <= x59 <= 1
 0 <= x60 <= 1
 0 <= x61 <= 1
 0 <= x62 <= 1
 0 <= x63 <= 1
 0 <= x64 <= 1
 0 <= x65 <= 1
 0 <= x66 <= 1
 0 <= x67 <= 1
 0 <= x68 <= 1
 0 <= x69 <= 1
 0 <= x70 <= 1
 0 <= x71 <= 1
 0 <= x72 <= 1
 0 <= x73 <= 1
 0 <= x74 <= 1
 0 <= x75 <= 1
 0 <= x76 <= 1
 0 <= x77 <= 1
 0 <= x78 <= 1
 0 <= x79 <= 1
 0 <= x80 <= 1
 0 <= x81 <= 1
 0 <= x82 <= 1
 0 <= x83 <= 1
 0 <= x84 <= 1
 0 <= x85 <= 1
 0 <= x86 <= 1
 0 <= x87 <= 1
 0 <= x88 <= 1
 0 <= x89 <= 1
 0 <= x90 <= 1
 0 <= x91 <= 1
 0 <= x92 <= 1
 0 <= x93 <= 1
 0 <= x94 <= 1
 0 <= x95 <= 1
 0 <= x96 <= 1
 0 <= x97 <= 1
 0 <= x98 <= 1
 0 <= x99 <= 1
 0 <= x100 <= 1
 0 <= x101 <= 1
 0 <= x102 <= 1
 0 <= x103 <= 1
 0 <= x104 <= 1
 0 <= x105 <= 1
 0 <= x106 <= 1
 0 <= x107 <= 1
 0 <= x108 <= 1
 0 <= x109 <= 1
 0 <= x110 <= 1
 0 <= x111 <= 1
 0 <= x112 <= 1
 0 <= x113 <= 1
 0 <= x114 <= 1
 0 <= x115 <= 1
 0 <= x116 <= 1
 0 <= x117 <= 1
 0 <= x118 <= 1
 0 <= x119 <= 1
 0 <= x120 <= 1
 0 <= x121 <= 1
 0 <= x122 <= 1
 0 <= x123 <= 1
 0 <= x124 <= 1
 0 <= x125 <= 1
 0 <= x126 <= 1
 0 <= x127 <= 1
 0 <= x128 <= 1
 0 <= x129 <= 1
 0 <= x130 <= 1
 0 <= x131 <= 1
 0 <= x132 <= 1
 0 <= x133 <= 1
 0 <= x134 <= 1
 0 <= x135 <= 1
 0 <= x136 <= 1
 0 <= x137 <= 1
 0 <= x138 <= 1
 0 <= x139 <= 1
 0 <= x140 <= 1
 0 <= x141 <= 1
 0 <= x142 <= 1
 0 <= x143 <= 1
 0 <= x144 <= 1
 0 <= x145 <= 1
 0 <= x146 <= 1
 0 <= x147 <= 1
 0 <= x148 <= 1
 0 <= x149 <= 1
 0 <= x150 <= 1
 0 <= x151 <= 1
 0 <= x152 <= 1
 0 <= x153 <= 1
 0 <= x154 <= 1
 0 <= x155 <= 1
 0 <= x156 <= 1
 0 <= x157 <= 1
 0 <= x158 <= 1
 0 <= x159 <= 1
 0 <= x160 <= 1
 0 <= x161 <= 1
 0 <= x162 <= 1
 0 <= x163 <= 1
 0 <= x164 <= 1
 0 <= x165 <= 1
 0 <= x166 <= 1
 0 <= x167 <= 1
 0 <= x168 <= 1
 0 <= x169 <= 1
 0 <= x170 <= 1
 0 <= x171 <= 1
 0 <= x172 <= 1
 0 <= x173 <= 1
 0 <= x174 <= 1
 0 <= x175 <= 1
 0 <= x176 <= 1
 0 <= x177 <= 1
 0 <= x178 <= 1
 0 <= x179 <= 1
 0 <= x180 <= 1
 0 <= x181 <= 1
 0 <= x182 <= 1
 0 <= x183 <= 1
 0 <= x184 <= 1
 0 <= x185 <= 1
 0 <= x186 <= 1
 0 <= x187 <= 1
 0 <= x188 <= 1
 0 <= x189 <= 1
 0 <= x190 <= 1
 0 <= x191 <= 1
 0 <= x192 <= 1
 0 <= x193 <= 1
 0 <= x194 <= 1
 0 <= x195 <= 1
 0 <= x196 <= 1
 0 <= x197 <= 1
 0 <= x198 <= 1
 0 <= x199 <= 1
 0 <= x200 <= 1
 0 <= x201 <= 1
 0 <= x202 <= 1
 0 <= x203 <= 1
 0 <= x204 <= 1
 0 <= x205 <= 1
 0 <= x206 <= 1
 0 <= x207 <= 1
 0 <= x208 <= 1
 0 <= x209 <= 1
 0 <= x210 <= 1
 0 <= x211 <= 1
 0 <= x212 <= 1
 0 <= x213 <= 1
 0 <= x214 <= 1
 0 <= x215 <= 1
 0 <= x216 <= 1
 0 <= x217 <= 1
 0 <= x218 <= 1
 0 <= x219 <= 1
 0 <= x220 <= 1
 0 <= x221 <= 1
 0 <= x222 <= 1
 0 <= x223 <= 1
 0 <= x224 <= 1
 0 <= x225 <= 1
 0 <= x226 <= 1
 0 <= x227 <= 1
 0 <= x228 <= 1
 0 <= x229 <= 1
 0 <= x230 <= 1
 0 <= x231 <= 1
 0 <= x232 <= 1
 0 <= x233 <= 1
 0 <= x234 <= 1
 0 <= x235 <= 1
 0 <= x236 <= 1
 0 <= x237 <= 1
 0 <= x238 <= 1
 0 <= x239 <= 1
 0 <= x240 <= 1
 0 <= x241 <= 1
 0 <= x242 <= 1
 0 <= x243 <= 1
 0 <= x244 <= 1
 0 <= x245 <= 1
 0 <= x246 <= 1
 0 <= x247 <= 1
 0 <= x248 <= 1
 0 <= x249 <= 1
 0 <= x250 <= 1
 0 <= x251 <= 1
 0 <= x252 <= 1
 0 <= x253 <= 1
 0 <= x254 <= 1
 0 <= x255 <= 1
 0 <= x256 <= 1
 0 <= x257 <= 1
 0 <= x258 <= 1
 0 <= x259 <= 1
 0 <= x260 <= 1
 0 <= x261 <= 1
 0 <= x262 <= 1
 0 <= x263 <= 1
 0 <= x264 <= 1
 0 <= x265 <= 1
 0 <= x266 <= 1
 0 <= x267 <= 1
 0 <= x268 <= 1
 0 <= x269 <= 1
 0 <= x270 <= 1
 0 <= x271 <= 1
 0 <= x272 <= 1
 0 <= x273 <= 1
 0 <= x274 <= 1
 0 <= x275 <= 1
 0 <= x276 <= 1
 0 <= x277 <= 1
 0 <= x278 <= 1
 0 <= x279 <= 1
 0 <= x280 <= 1
 0 <= x281 <= 1
 0 <= x282 <= 1
 0 <= x283 <= 1
 0 <= x284 <= 1
 0 <= x285 <= 1
 0 <= x286 <= 1
 0 <= x287 <= 1
 0 <= x288 <= 1
 0 <= x289 <= 1
 0 <= x290 <= 1
 0 <= x291 <= 1
 0 <= x292 <= 1
 0 <= x293 <= 1
 0 <= x294 <= 1
 0 <= x295 <= 1
 0 <= x296 <= 1
 0 <= x297 <= 1
 0 <= x298 <= 1
 0 <= x299 <= 1
 0 <= x300 <= 1
Binaries
 x251  x252  x253  x254  x255  x256  x257  x258  x259  x260  x261  x262  x263 
 x264  x265  x266  x267  x268  x269  x270  x271  x272  x273  x274  x275  x276 
 x277  x278  x279  x280  x281  x282  x283  x284  x285  x286  x287  x288  x289 
 x290  x291  x292  x293  x294  x295  x296  x297  x298  x299  x300 
End
